NAME : prob30c.7723.tour
COMMENT : Cost = 0_7723
COMMENT : Found by LKH [Keld Helsgaun] Sun Sep 17 01:06:33 2017
TYPE : TOUR
DIMENSION : 61
TOUR_SECTION
1
57
48
33
43
18
56
44
52
61
42
35
31
40
58
26
5
22
34
38
47
28
27
55
45
32
41
12
59
53
10
36
54
60
23
46
11
50
3
51
17
37
2
24
20
7
49
25
8
39
30
15
29
14
21
6
13
19
4
16
9
-1
EOF
